NAME: random_70_6
TYPE: TSP
COMMENT: random_70_6
DIMENSION: 70
EDGE_WEIGHT_TYPE: EUC_2D
NODE_COORD_SECTION
1 11 241
2 435 449
3 469 370
4 9 101
5 320 354
6 131 11
7 220 430
8 431 463
9 465 395
10 361 190
11 247 412
12 217 218
13 226 467
14 81 77
15 198 254
16 68 146
17 308 211
18 316 32
19 327 2
20 25 351
21 349 476
22 489 261
23 465 245
24 194 435
25 154 167
26 261 118
27 413 8
28 246 474
29 453 181
30 43 228
31 442 66
32 215 121
33 95 8
34 410 140
35 493 162
36 301 85
37 57 119
38 86 402
39 150 418
40 25 63
41 97 498
42 434 182
43 376 430
44 2 319
45 215 157
46 474 42
47 78 112
48 316 134
49 205 334
50 163 30
51 225 101
52 491 446
53 50 491
54 285 13
55 390 289
56 477 411
57 491 128
58 310 478
59 222 165
60 252 456
61 316 381
62 360 4
63 240 148
64 344 126
65 115 308
66 249 196
67 406 207
68 275 337
69 105 342
70 82 200
